Set parameter TSPort to value 51199
Set parameter TokenServer to value "open-license1.lanl.gov"
Set parameter TimeLimit to value 1024
Set parameter Threads to value 1
Gurobi Optimizer version 10.0.3 build v10.0.3rc0 (linux64)

CPU model: Intel(R) Xeon(R) CPU E5-2695 v4 @ 2.10GHz, instruction set [SSE2|AVX|AVX2]
Thread count: 36 physical cores, 72 logical processors, using up to 1 threads

Optimize a model with 0 rows, 3447 columns and 0 nonzeros
Model fingerprint: 0xed450e31
Model has 15846 quadratic objective terms
Variable types: 0 continuous, 3447 integer (3447 binary)
Coefficient statistics:
  Matrix range     [0e+00, 0e+00]
  Objective range  [2e+00, 3e+01]
  QObjective range [8e+00, 8e+00]
  Bounds range     [1e+00, 1e+00]
  RHS range        [0e+00, 0e+00]
Found heuristic solution: objective 0.0000000
Found heuristic solution: objective -5814.000000
Found heuristic solution: objective -21190.00000
Found heuristic solution: objective -21244.00000
Presolve removed 0 rows and 4 columns (presolve time = 6s) ...
Presolve removed 0 rows and 4 columns
Presolve time: 6.37s
Presolved: 15840 rows, 19283 columns, 47520 nonzeros
Variable types: 0 continuous, 19283 integer (19283 binary)

Root simplex log...

Iteration    Objective       Primal Inf.    Dual Inf.      Time
       0   -3.1710000e+04   6.133000e+03   0.000000e+00     10s
    4678   -2.9685000e+04   0.000000e+00   0.000000e+00     11s

Root relaxation: objective -2.968500e+04, 4678 iterations, 1.04 seconds (0.03 work units)
Total elapsed time = 11.06s

    Nodes    |    Current Node    |     Objective Bounds      |     Work
 Expl Unexpl |  Obj  Depth IntInf | Incumbent    BestBd   Gap | It/Node Time

     0     0 -29685.000    0 3443 -21244.000 -29685.000  39.7%     -   13s
     0     0 -27990.000    0 4255 -21244.000 -27990.000  31.8%     -   25s
     0     0 -27526.000    0 4526 -21244.000 -27526.000  29.6%     -   30s
     0     0 -27509.000    0 4541 -21244.000 -27509.000  29.5%     -   31s
     0     0 -27352.000    0 4640 -21244.000 -27352.000  28.8%     -   39s
     0     0 -27352.000    0 4603 -21244.000 -27352.000  28.8%     -   50s
     0     2 -27352.000    0 4586 -21244.000 -27352.000  28.8%     -   73s
     6     8 -27321.000    3 4606 -21244.000 -27341.000  28.7%   642   75s
    22    24 -27237.000   11 4697 -21244.000 -27341.000  28.7%   239   80s
    36    38 -27177.000   18 4754 -21244.000 -27341.000  28.7%   183   85s
    50    52 -27115.000   25 4819 -21244.000 -27341.000  28.7%   161   90s
    64    66 -27041.000   32 4870 -21244.000 -27341.000  28.7%   150   95s
    78    80 -26980.000   39 4941 -21244.000 -27341.000  28.7%   138  100s
    92    94 -26912.000   46 4994 -21244.000 -27341.000  28.7%   132  105s
   108   110 -26832.000   54 5068 -21244.000 -27341.000  28.7%   127  110s
   124   126 -26754.000   62 5141 -21244.000 -27341.000  28.7%   119  115s
   140   142 -26676.000   70 5203 -21244.000 -27341.000  28.7%   114  120s
   155   157 -26593.000   78 5289 -21244.000 -27341.000  28.7%   113  125s
   170   172 -26524.000   85 5371 -21244.000 -27341.000  28.7%   112  130s
   184   186 -26468.000   92 5407 -21244.000 -27341.000  28.7%   111  135s
   199   201 -26388.000  100 5450 -21244.000 -27341.000  28.7%   110  140s
   216   218 -26318.000  108 5478 -21244.000 -27341.000  28.7%   108  145s
   232   234 -26246.000  116 5506 -21244.000 -27341.000  28.7%   106  150s
   249   251 -26167.000  125 5556 -21244.000 -27341.000  28.7%   105  155s
   265   267 -26095.000  133 5623 -21244.000 -27341.000  28.7%   105  160s
   283   285 -26017.000  142 5659 -21244.000 -27341.000  28.7%   104  165s
   299   301 -25946.000  150 5696 -21244.000 -27341.000  28.7%   102  170s
   316   318 -25878.000  158 5733 -21244.000 -27341.000  28.7%   101  175s
   331   333 -25810.000  166 5820 -21244.000 -27341.000  28.7%   100  180s
   346   348 -25754.000  173 5867 -21244.000 -27341.000  28.7%   100  185s
   366   368 -25664.000  183 5902 -21244.000 -27341.000  28.7%  98.2  190s
   382   384 -25594.000  191 5930 -21244.000 -27341.000  28.7%  97.8  195s
   401   403 -25515.000  201 5986 -21244.000 -27341.000  28.7%  96.3  200s
   418   420 -25452.000  209 6015 -21244.000 -27341.000  28.7%  95.2  205s
   432   434 -25393.000  216 6029 -21244.000 -27341.000  28.7%  94.7  210s
   449   451 -25314.000  225 6050 -21244.000 -27341.000  28.7%  93.9  215s
   465   467 -25249.000  233 6064 -21244.000 -27341.000  28.7%  93.0  220s
   477   479 -25188.000  239 6102 -21244.000 -27341.000  28.7%  93.1  225s
   492   494 -25131.000  246 6128 -21244.000 -27341.000  28.7%  92.6  230s
   510   512 -25075.000  255 6174 -21244.000 -27341.000  28.7%  91.8  235s
   522   524 -25036.000  261 6190 -21244.000 -27341.000  28.7%  92.0  240s
   540   542 -24978.000  270 6204 -21244.000 -27341.000  28.7%  91.6  246s
   551   553 -24926.000  276 6232 -21244.000 -27341.000  28.7%  91.9  250s
   566   568 -24872.000  283 6229 -21244.000 -27341.000  28.7%  91.1  255s
   571   573 -24842.000  286 6235 -21244.000 -27341.000  28.7%  90.8  260s
   588   590 -24780.000  294 6298 -21244.000 -27341.000  28.7%  89.9  265s
   604   606 -24723.000  302 6292 -21244.000 -27341.000  28.7%  88.8  270s
   621   623 -24650.000  311 6308 -21244.000 -27341.000  28.7%  88.1  275s
   635   637 -24601.000  318 6361 -21244.000 -27341.000  28.7%  87.6  280s
   650   652 -24553.000  325 6370 -21244.000 -27341.000  28.7%  86.7  285s
   664   666 -24500.000  332 6393 -21244.000 -27341.000  28.7%  86.4  290s
   678   680 -24448.000  339 6401 -21244.000 -27341.000  28.7%  85.8  295s
   697   699 -24363.000  349 6429 -21244.000 -27341.000  28.7%  85.6  300s
   709   711 -24315.000  355 6447 -21244.000 -27341.000  28.7%  85.3  305s
   726   728 -24251.000  363 6466 -21244.000 -27341.000  28.7%  84.6  310s
   740   742 -24206.000  370 6474 -21244.000 -27341.000  28.7%  84.2  315s
   756   758 -24148.000  378 6500 -21244.000 -27341.000  28.7%  83.7  321s
   766   768 -24111.000  383 6483 -21244.000 -27341.000  28.7%  83.2  325s
   782   784 -24052.000  391 6499 -21244.000 -27341.000  28.7%  82.6  330s
   795   797 -24003.000  398 6518 -21244.000 -27341.000  28.7%  82.1  335s
   810   812 -23947.000  405 6515 -21244.000 -27341.000  28.7%  81.6  345s
   827   829 -23891.000  414 6552 -21244.000 -27341.000  28.7%  80.9  350s
   837   839 -23853.000  419 6564 -21244.000 -27341.000  28.7%  80.5  355s
   852   854 -23808.000  426 6570 -21244.000 -27341.000  28.7%  79.9  360s
   864   866 -23764.000  432 6584 -21244.000 -27341.000  28.7%  79.4  396s
   875   877 -23725.000  438 6594 -21244.000 -27341.000  28.7%  78.9  400s
   891   893 -23669.000  446 6639 -21244.000 -27341.000  28.7%  78.4  405s
   908   910 -23612.000  454 6667 -21244.000 -27341.000  28.7%  77.8  410s
   909   911 -23603.000  455 6655 -21244.000 -27341.000  28.7%  77.8  448s
   917   919 -23575.000  459 6659 -21244.000 -27341.000  28.7%  77.5  450s
   936   938 -23513.000  468 6664 -21244.000 -27341.000  28.7%  76.9  455s
   955   957 -23452.000  478 6705 -21244.000 -27341.000  28.7%  76.5  460s
   975   977 -23369.000  488 6736 -21244.000 -27341.000  28.7%  76.1  465s
   992   994 -23322.000  496 6758 -21244.000 -27341.000  28.7%  75.7  470s
  1010  1012 -23262.000  505 6750 -21244.000 -27341.000  28.7%  75.4  475s
  1031  1033 -23201.000  516 6755 -21244.000 -27341.000  28.7%  74.8  480s
  1047  1049 -23146.000  524 6766 -21244.000 -27341.000  28.7%  74.6  485s
  1066  1068 -23086.000  533 6767 -21244.000 -27341.000  28.7%  74.2  490s
  1086  1088 -23032.000  543 6815 -21244.000 -27341.000  28.7%  73.7  496s
  1097  1099 -22997.000  549 6816 -21244.000 -27341.000  28.7%  73.6  500s
  1118  1120 -22937.000  559 6837 -21244.000 -27341.000  28.7%  73.2  505s
  1119  1121 -22933.000  560 6851 -21244.000 -27341.000  28.7%  73.1  534s
  1121  1123 -22929.000  561 6854 -21244.000 -27341.000  28.7%  73.1  535s
  1140  1142 -22885.000  570 6876 -21244.000 -27341.000  28.7%  72.8  540s
  1158  1160 -22833.000  579 6880 -21244.000 -27341.000  28.7%  72.6  545s
  1176  1178 -22782.000  588 6897 -21244.000 -27341.000  28.7%  72.2  550s
  1196  1198 -22729.000  599 6925 -21244.000 -27341.000  28.7%  71.7  555s
  1215  1217 -22684.000  608 6927 -21244.000 -27341.000  28.7%  71.3  560s
  1235  1237 -22648.000  619 6891 -21244.000 -27341.000  28.7%  70.9  565s
  1254  1256 -22587.000  629 6879 -21244.000 -27341.000  28.7%  70.6  570s
  1274  1276 -22532.000  639 6843 -21244.000 -27341.000  28.7%  70.4  575s
  1293  1295 -22480.000  648 6808 -21244.000 -27341.000  28.7%  70.3  580s
  1313  1315 -22444.000  658 6780 -21244.000 -27341.000  28.7%  69.9  585s
  1330  1332 -22397.000  667 6767 -21244.000 -27341.000  28.7%  69.8  590s
H 1352  1352                    -21250.00000 -27341.000  28.7%  69.4  595s
  1369  1371 -22305.000  686 6742 -21250.000 -27341.000  28.7%  69.2  600s
  1390  1392 -22240.000  697 6706 -21250.000 -27341.000  28.7%  68.7  605s
  1408  1410 -22198.000  706 6700 -21250.000 -27341.000  28.7%  68.5  610s
  1428  1430 -22152.000  716 6688 -21250.000 -27341.000  28.7%  68.4  615s
H 1430  1430                    -21258.00000 -27341.000  28.6%  68.3  615s
  1446  1448 -22116.000  725 6675 -21258.000 -27341.000  28.6%  68.2  620s
H 1456  1456                    -21262.00000 -27341.000  28.6%  68.0  622s
  1466  1468 -22058.000  735 6663 -21262.000 -27341.000  28.6%  67.9  625s
H 1482  1482                    -21270.00000 -27341.000  28.5%  67.9  630s
  1502  1504 -21956.000  753 6645 -21270.000 -27341.000  28.5%  67.8  635s
H 1508  1508                    -21296.00000 -27341.000  28.4%  67.7  637s
  1519  1521 -21901.000  762 6628 -21296.000 -27341.000  28.4%  67.6  640s
H 1534  1534                    -21310.00000 -27341.000  28.3%  67.4  644s
  1537  1539 -21854.000  771 6600 -21310.000 -27341.000  28.3%  67.5  645s
  1555  1557 -21814.000  780 6570 -21310.000 -27341.000  28.3%  67.3  650s
H 1560  1560                    -21318.00000 -27341.000  28.3%  67.3  652s
  1571  1573 -21771.500  788 6565 -21318.000 -27341.000  28.3%  67.2  655s
H 1586  1586                    -21330.00000 -27341.000  28.2%  67.0  659s
  1587  1589 -21733.500  796 6552 -21330.000 -27341.000  28.2%  67.1  660s
  1604  1606 -21691.000  804 6523 -21330.000 -27341.000  28.2%  67.0  665s
H 1612  1612                    -21334.00000 -27341.000  28.2%  66.8  668s
  1619  1621 -21663.500  812 6426 -21334.000 -27341.000  28.2%  66.8  670s
H 1638  1638                    -21348.00000 -27341.000  28.1%  66.6  675s
  1654  1656 -21581.500  829 6378 -21348.000 -27341.000  28.1%  66.4  680s
H 1664  1664                    -21350.00000 -27341.000  28.1%  66.2  683s
  1672  1674 -21549.500  838 6344 -21350.000 -27341.000  28.1%  66.1  685s
H 1690  1690                    -21364.00000 -27341.000  28.0%  65.8  690s
  1711  1713 -21472.000  859 6286 -21364.000 -27341.000  28.0%  65.4  695s
H 1716  1716                    -21386.00000 -27341.000  27.8%  65.3  697s
  1726  1728 -21443.000  867 6271 -21386.000 -27341.000  27.8%  65.2  700s
H 1742  1742                    -21396.00000 -27341.000  27.8%  64.9  705s
  1764  1753 -21398.000  882 6189 -21396.000 -27341.000  27.8%  64.5  710s
H 1769  1748                    -21400.00000 -27341.000  27.8%  64.3  711s
  1790  1746 -21404.000  879 6201 -21400.000 -27341.000  27.8%  63.9  715s
  1796  1745 -25896.000  157 7920 -21400.000 -27341.000  27.8%  63.8  761s
  1798  1746 -24627.000  315 3443 -21400.000 -27341.000  27.8%  63.7  790s
  1799  1747 -26566.000   82 4275 -21400.000 -27341.000  27.8%  63.7  796s
  1800  1748 -22351.000  677 4989 -21400.000 -26696.000  24.7%  63.7  808s
  1801  1748 -25146.000  245 5487 -21400.000 -26064.567  21.8%  63.6  841s
  1802  1749 -21594.500  827 5603 -21400.000 -25915.481  21.1%  63.6  865s
  1803  1750 -22438.000  659 5686 -21400.000 -25883.083  20.9%  63.6  875s
  1806  1752 -25102.000  252 5683 -21400.000 -25876.750  20.9%  63.5  880s
  1807  1752 -23964.000  403 5683 -21400.000 -25876.683  20.9%  63.4  891s
  1808  1753 -25350.654  126 6359 -21400.000 -25350.654  18.5%  63.4  995s

Cutting planes:
  Gomory: 66
  MIR: 604
  Flow cover: 2518
  Zero half: 1358
  RLT: 507
  BQP: 997

Explored 1808 nodes (249038 simplex iterations) in 1024.02 seconds (41.25 work units)
Thread count was 1 (of 72 available processors)

Solution count 10: -21400 -21396 -21386 ... -21310

Time limit reached
Best objective -2.140000000000e+04, best bound -2.535000000000e+04, gap 18.4579%

User-callback calls 44249, time in user-callback 2.56 sec

BQP_SOLUTION, 3447, 15846, -7559.000000, 1024.025301, 1, 1, 1, -1, -1, 1, -1, -1, -1, -1, 1, 1, 1, -1, 1, 1, 1, -1, -1, 1, -1, 1, 1, -1, 1, 1, 1, -1, 1, -1, -1, 1, -1, -1, 1, -1, 1, -1, -1, 1, -1, 1, -1, -1, -1, -1, 1, 1, -1, 1, -1, 1, -1, 1, -1, -1, 1, -1, 1, 1, 1, 1, 1, 1, -1, 1, -1, -1, -1, -1, 1, 1, 1, 1, 1, 1, -1, 1, -1, 1, -1, 1, 1, 1, 1, 1, -1, 1, -1, 1, -1, -1, -1, -1, 1, 1, -1, 1, 1, -1, -1, 1, -1, -1, 1, -1, 1, 1, 1, 1, -1, 1, 1, 1, -1, -1, -1, -1, 1, 1, 1, -1, 1, 1, 1, -1, -1, -1, -1, -1, -1, 1, 1, 1, -1, 1, -1, 1, 1, -1, -1, -1, -1, 1, -1, 1, 1, -1, -1, 1, -1, -1, -1, 1, 1, 1, -1, -1, 1, -1, 1, 1, -1, -1, 1, -1, 1, -1, -1, 1, 1, -1, -1, 1, -1, -1, -1, 1, -1, 1, -1, 1, 1, -1, -1, -1, 1, -1, -1, 1, 1, 1, -1, -1, -1, 1, -1, -1, 1, -1, -1, -1, -1, 1, -1, 1, -1, 1, -1, 1, 1, -1, -1, 1, -1, 1, -1, -1, 1, -1, -1, -1, 1, -1, -1, -1, 1, -1, -1, 1, -1, 1, -1, -1, -1, -1, -1, -1, -1, 1, -1, -1, 1, -1, -1, -1, 1, -1, -1, -1, -1, -1, 1, -1, 1, -1, -1, -1, -1, 1, -1, -1, -1, -1, 1, -1, 1, -1, -1, -1, -1, 1, -1, -1, 1, -1, -1, -1, 1, -1, -1, -1, -1, 1, -1, -1, 1, -1, -1, -1, 1, -1, -1, -1, -1, -1, -1, -1, -1, -1, -1, 1, -1, -1, -1, 1, 1, -1, -1, 1, 1, -1, -1, 1, -1, -1, -1, -1, -1, -1, -1, -1, 1, -1, -1, 1, -1, -1, -1, 1, -1, 1, -1, -1, -1, -1, -1, -1, 1, -1, -1, -1, -1, -1, -1, -1, 1, -1, -1, 1, -1, -1, -1, -1, 1, 1, -1, -1, 1, -1, -1, 1, -1, -1, 1, -1, -1, 1, -1, -1, 1, -1, -1, 1, -1, 1, -1, -1, -1, -1, 1, -1, -1, -1, -1, -1, -1, 1, -1, -1, 1, 1, -1, 1, -1, -1, -1, 1, -1, -1, -1, 1, 1, -1, -1, -1, -1, 1, -1, -1, -1, 1, -1, -1, -1, 1, -1, 1, -1, 1, 1, 1, -1, 1, 1, -1, 1, 1, -1, -1, -1, 1, -1, -1, -1, 1, -1, 1, 1, -1, -1, -1, -1, 1, -1, -1, 1, 1, -1, -1, 1, -1, 1, -1, 1, 1, -1, -1, 1, -1, -1, -1, 1, 1, 1, 1, 1, 1, -1, -1, 1, 1, -1, -1, 1, 1, 1, -1, 1, 1, -1, -1, 1, -1, -1, -1, 1, 1, 1, -1, -1, 1, 1, 1, -1, 1, 1, -1, 1, 1, 1, 1, 1, 1, 1, -1, 1, -1, -1, -1, 1, -1, 1, -1, 1, -1, 1, -1, 1, 1, -1, -1, 1, -1, 1, -1, 1, -1, 1, -1, -1, 1, -1, -1, -1, -1, 1, 1, 1, 1, 1, -1, -1, 1, 1, -1, 1, -1, 1, 1, -1, 1, 1, -1, 1, 1, -1, -1, 1, -1, 1, -1, -1, 1, -1, 1, 1, 1, 1, -1, 1, -1, 1, 1, -1, -1, 1, 1, 1, 1, -1, 1, -1, 1, -1, 1, 1, 1, -1, -1, 1, -1, -1, -1, -1, 1, 1, -1, 1, -1, -1, 1, 1, -1, -1, 1, -1, -1, 1, 1, 1, -1, 1, 1, 1, 1, 1, 1, -1, 1, 1, -1, 1, -1, -1, 1, 1, 1, -1, 1, -1, -1, 1, -1, 1, 1, 1, 1, 1, 1, 1, 1, -1, -1, 1, -1, 1, -1, 1, 1, 1, 1, 1, 1, 1, -1, 1, -1, 1, -1, -1, -1, 1, 1, -1, 1, 1, -1, 1, -1, 1, 1, -1, 1, 1, 1, 1, 1, 1, -1, 1, 1, 1, -1, -1, 1, 1, 1, 1, 1, 1, -1, -1, -1, -1, -1, -1, -1, 1, 1, -1, 1, 1, -1, 1, 1, 1, -1, -1, 1, 1, -1, 1, 1, 1, -1, 1, -1, -1, -1, -1, 1, 1, 1, -1, 1, 1, -1, 1, -1, 1, -1, 1, 1, 1, 1, -1, 1, -1, -1, 1, -1, 1, -1, 1, 1, -1, 1, 1, 1, 1, 1, 1, -1, 1, -1, 1, 1, 1, 1, 1, 1, 1, 1, 1, -1, -1, -1, -1, 1, -1, 1, 1, -1, 1, -1, 1, -1, -1, -1, 1, 1, 1, 1, 1, 1, 1, 1, 1, -1, -1, -1, 1, 1, 1, -1, 1, 1, 1, 1, 1, -1, 1, -1, -1, 1, -1, 1, -1, 1, 1, 1, 1, -1, -1, -1, -1, 1, 1, 1, 1, 1, 1, 1, 1, 1, -1, -1, -1, 1, 1, -1, 1, 1, 1, 1, 1, 1, -1, -1, -1, 1, -1, 1, 1, 1, 1, 1, 1, 1, 1, -1, -1, 1, 1, -1, -1, 1, 1, -1, 1, 1, 1, -1, 1, 1, 1, 1, 1, 1, 1, 1, 1, -1, -1, -1, 1, 1, -1, -1, 1, 1, 1, 1, 1, 1, -1, -1, 1, -1, -1, -1, 1, 1, -1, 1, 1, 1, -1, -1, 1, 1, -1, -1, 1, 1, 1, -1, 1, -1, -1, -1, 1, -1, 1, -1, 1, 1, -1, 1, -1, -1, 1, -1, 1, -1, -1, 1, 1, 1, 1, 1, 1, -1, 1, 1, -1, 1, -1, -1, 1, -1, -1, 1, 1, -1, 1, 1, 1, -1, -1, 1, 1, -1, -1, -1, 1, -1, 1, 1, 1, 1, -1, 1, -1, 1, -1, 1, 1, -1, 1, 1, 1, -1, -1, -1, 1, -1, -1, -1, -1, -1, 1, 1, 1, 1, -1, -1, -1, 1, -1, -1, -1, -1, 1, 1, 1, 1, -1, 1, 1, -1, -1, 1, -1, 1, 1, 1, 1, 1, -1, 1, -1, 1, -1, -1, 1, -1, 1, 1, 1, -1, 1, 1, -1, -1, -1, -1, -1, 1, 1, 1, -1, 1, 1, -1, -1, 1, -1, -1, -1, 1, 1, 1, -1, 1, 1, -1, -1, -1, -1, -1, 1, 1, 1, -1, 1, -1, 1, 1, -1, 1, -1, -1, -1, -1, 1, 1, -1, 1, 1, -1, 1, -1, -1, -1, 1, 1, 1, -1, -1, -1, 1, -1, 1, 1, -1, -1, -1, -1, 1, 1, -1, 1, 1, -1, -1, 1, -1, -1, -1, 1, -1, 1, -1, -1, 1, -1, 1, -1, 1, -1, 1, -1, -1, -1, -1, -1, 1, -1, -1, 1, -1, -1, -1, -1, -1, -1, -1, -1, 1, -1, 1, -1, 1, -1, 1, 1, -1, 1, -1, -1, 1, 1, -1, -1, 1, -1, 1, -1, 1, -1, -1, -1, 1, -1, 1, 1, 1, -1, 1, -1, -1, -1, -1, -1, 1, -1, -1, 1, -1, 1, 1, 1, -1, -1, -1, 1, -1, 1, -1, 1, -1, 1, -1, -1, -1, -1, -1, -1, -1, 1, -1, 1, -1, 1, 1, -1, -1, -1, 1, -1, 1, 1, -1, 1, 1, 1, -1, -1, 1, 1, -1, -1, -1, 1, -1, 1, -1, 1, 1, -1, 1, -1, 1, 1, -1, 1, 1, -1, -1, 1, -1, 1, -1, 1, -1, -1, -1, 1, -1, -1, -1, 1, 1, -1, 1, -1, -1, -1, 1, -1, 1, -1, -1, 1, 1, -1, 1, -1, 1, -1, -1, -1, 1, -1, -1, 1, 1, -1, 1, -1, 1, -1, -1, -1, 1, -1, -1, 1, 1, 1, -1, 1, 1, 1, -1, 1, 1, -1, -1, 1, -1, -1, 1, 1, -1, -1, -1, 1, 1, -1, 1, 1, -1, 1, -1, 1, 1, -1, -1, 1, 1, -1, -1, 1, -1, 1, -1, 1, 1, 1, 1, 1, 1, -1, 1, 1, -1, 1, -1, 1, 1, 1, 1, 1, 1, -1, 1, 1, -1, 1, 1, 1, 1, -1, 1, 1, 1, 1, -1, -1, 1, 1, -1, 1, 1, 1, -1, 1, 1, 1, -1, 1, 1, 1, 1, 1, -1, -1, 1, 1, 1, 1, 1, 1, 1, 1, -1, 1, 1, -1, 1, 1, 1, -1, 1, 1, -1, 1, 1, 1, -1, 1, 1, -1, 1, 1, -1, 1, -1, 1, 1, -1, 1, -1, 1, 1, 1, 1, -1, 1, 1, 1, -1, -1, -1, 1, 1, -1, 1, 1, -1, -1, 1, 1, 1, 1, -1, 1, 1, 1, 1, 1, 1, 1, -1, -1, 1, -1, 1, 1, 1, 1, 1, 1, -1, 1, 1, 1, -1, 1, -1, 1, 1, 1, 1, -1, 1, -1, 1, -1, 1, -1, 1, 1, -1, 1, -1, 1, -1, -1, 1, -1, 1, -1, -1, -1, -1, 1, 1, -1, 1, -1, 1, -1, 1, 1, -1, 1, 1, 1, 1, 1, -1, -1, -1, 1, 1, -1, 1, 1, -1, -1, 1, 1, 1, -1, -1, 1, 1, 1, 1, 1, -1, -1, 1, 1, -1, -1, 1, -1, -1, 1, 1, 1, -1, -1, 1, 1, -1, -1, 1, -1, 1, 1, -1, 1, -1, -1, -1, 1, -1, -1, 1, -1, -1, 1, 1, 1, 1, -1, 1, 1, -1, -1, 1, -1, -1, 1, 1, -1, 1, -1, -1, 1, -1, -1, 1, -1, 1, 1, 1, 1, 1, -1, 1, 1, -1, -1, -1, -1, 1, 1, 1, 1, -1, -1, 1, -1, -1, -1, 1, 1, 1, 1, 1, -1, 1, 1, -1, -1, 1, 1, -1, 1, 1, -1, 1, 1, 1, 1, 1, -1, -1, 1, -1, 1, 1, 1, 1, -1, 1, 1, 1, -1, 1, 1, -1, 1, 1, 1, 1, 1, 1, -1, 1, -1, 1, 1, -1, 1, 1, 1, 1, 1, 1, 1, 1, -1, -1, 1, 1, -1, 1, 1, 1, -1, 1, 1, -1, -1, -1, 1, -1, 1, 1, 1, 1, 1, 1, -1, 1, -1, -1, 1, -1, 1, 1, 1, 1, 1, -1, 1, -1, -1, -1, 1, 1, -1, 1, -1, 1, 1, 1, 1, -1, -1, -1, -1, -1, 1, 1, -1, 1, 1, -1, 1, -1, 1, -1, 1, 1, -1, 1, -1, 1, 1, 1, -1, 1, 1, -1, 1, -1, 1, 1, -1, 1, 1, -1, 1, -1, -1, 1, -1, 1, -1, 1, -1, 1, 1, -1, -1, 1, -1, 1, 1, 1, 1, -1, 1, 1, 1, -1, 1, 1, -1, 1, 1, -1, 1, -1, 1, 1, 1, -1, 1, -1, 1, 1, -1, -1, 1, 1, -1, 1, -1, 1, 1, 1, -1, 1, 1, 1, 1, -1, 1, 1, 1, -1, 1, -1, 1, 1, -1, 1, 1, -1, 1, 1, -1, 1, 1, -1, 1, -1, -1, 1, 1, 1, 1, 1, -1, 1, -1, -1, 1, 1, -1, 1, 1, -1, 1, 1, -1, 1, 1, 1, 1, -1, -1, 1, 1, -1, 1, 1, 1, -1, 1, -1, 1, 1, -1, 1, 1, -1, 1, 1, 1, -1, 1, -1, -1, 1, -1, 1, 1, -1, 1, -1, 1, -1, 1, -1, 1, -1, 1, 1, 1, -1, 1, 1, -1, 1, -1, -1, 1, 1, -1, 1, -1, 1, 1, 1, -1, 1, -1, 1, -1, -1, 1, -1, 1, -1, 1, -1, -1, 1, 1, -1, -1, 1, -1, 1, -1, 1, -1, -1, -1, 1, 1, -1, -1, 1, -1, 1, 1, -1, 1, -1, -1, 1, -1, 1, -1, -1, -1, -1, 1, -1, 1, 1, -1, 1, -1, 1, -1, 1, 1, -1, -1, 1, -1, 1, -1, -1, 1, -1, 1, -1, -1, 1, -1, 1, -1, 1, -1, 1, -1, 1, 1, -1, -1, 1, -1, 1, 1, -1, -1, -1, 1, 1, 1, -1, -1, -1, -1, 1, -1, 1, -1, -1, -1, 1, -1, -1, 1, 1, -1, 1, -1, 1, -1, 1, 1, -1, -1, -1, 1, -1, 1, -1, 1, -1, -1, -1, 1, -1, 1, -1, 1, -1, 1, 1, -1, 1, 1, 1, 1, -1, -1, -1, -1, -1, 1, 1, 1, -1, -1, 1, 1, -1, -1, -1, -1, 1, 1, 1, -1, -1, -1, 1, -1, -1, -1, 1, 1, -1, -1, 1, -1, 1, 1, -1, 1, -1, -1, -1, -1, 1, -1, -1, -1, 1, 1, 1, -1, -1, -1, 1, -1, 1, 1, -1, -1, -1, 1, 1, -1, -1, -1, 1, 1, 1, 1, -1, -1, 1, 1, 1, -1, -1, -1, -1, 1, 1, 1, 1, -1, 1, 1, -1, -1, -1, -1, -1, -1, 1, 1, -1, -1, 1, -1, -1, -1, 1, -1, 1, 1, 1, 1, -1, -1, 1, -1, 1, -1, 1, -1, -1, -1, 1, 1, -1, -1, -1, 1, 1, -1, 1, -1, -1, -1, 1, 1, -1, -1, 1, -1, 1, -1, 1, -1, -1, 1, 1, -1, -1, 1, -1, 1, -1, 1, -1, 1, -1, 1, 1, -1, -1, -1, -1, 1, -1, 1, -1, 1, -1, 1, 1, 1, -1, 1, 1, 1, -1, 1, -1, -1, -1, 1, 1, -1, -1, -1, -1, 1, -1, 1, 1, -1, 1, 1, 1, -1, -1, 1, -1, 1, -1, -1, -1, 1, -1, 1, 1, -1, -1, 1, -1, 1, -1, -1, -1, 1, -1, 1, 1, -1, -1, -1, 1, 1, 1, -1, -1, -1, -1, 1, -1, 1, -1, -1, 1, 1, 1, 1, -1, -1, 1, 1, -1, -1, -1, 1, 1, 1, 1, -1, -1, -1, 1, 1, -1, 1, 1, 1, -1, -1, 1, -1, 1, 1, 1, 1, -1, -1, -1, 1, -1, 1, -1, -1, -1, 1, 1, 1, 1, -1, 1, 1, 1, 1, 1, -1, -1, 1, 1, -1, -1, -1, 1, 1, 1, 1, -1, -1, -1, 1, 1, 1, -1, -1, 1, 1, 1, 1, 1, -1, -1, 1, 1, -1, 1, -1, 1, 1, 1, 1, -1, -1, -1, 1, 1, -1, -1, -1, 1, 1, 1, -1, 1, 1, 1, 1, 1, 1, 1, -1, -1, 1, 1, 1, -1, -1, -1, -1, 1, -1, 1, -1, -1, 1, 1, 1, -1, -1, -1, 1, 1, 1, 1, 1, 1, 1, -1, 1, -1, -1, -1, 1, 1, 1, 1, -1, -1, 1, -1, 1, -1, -1, -1, 1, 1, 1, -1, 1, -1, 1, 1, -1, -1, -1, -1, 1, 1, 1, 1, -1, -1, 1, -1, 1, 1, -1, -1, -1, 1, 1, 1, -1, -1, 1, -1, 1, -1, -1, -1, -1, 1, 1, -1, 1, -1, 1, -1, -1, 1, 1, -1, -1, 1, -1, 1, -1, -1, 1, -1, 1, -1, -1, 1, -1, 1, 1, 1, -1, 1, -1, 1, 1, -1, 1, -1, -1, 1, 1, 1, -1, -1, -1, -1, 1, 1, -1, -1, -1, 1, -1, 1, -1, -1, 1, -1, 1, -1, 1, -1, -1, 1, 1, 1, 1, -1, -1, -1, 1, -1, 1, -1, 1, 1, 1, 1, 1, -1, -1, -1, 1, -1, 1, -1, -1, -1, 1, 1, -1, -1, 1, -1, 1, -1, 1, -1, 1, 1, -1, 1, 1, -1, -1, -1, 1, -1, 1, 1, -1, 1, 1, 1, -1, 1, -1, 1, 1, 1, 1, 1, 1, 1, -1, 1, 1, 1, 1, -1, 1, -1, -1, 1, 1, 1, -1, 1, 1, 1, -1, 1, -1, 1, 1, -1, 1, -1, 1, 1, -1, -1, -1, 1, 1, -1, 1, 1, -1, 1, 1, 1, -1, -1, -1, -1, -1, 1, -1, 1, 1, 1, -1, -1, -1, -1, -1, 1, -1, 1, -1, -1, 1, 1, 1, -1, 1, -1, -1, 1, -1, 1, 1, 1, 1, 1, 1, -1, -1, 1, -1, 1, -1, -1, 1, 1, 1, 1, 1, -1, -1, -1, 1, -1, -1, 1, -1, 1, -1, 1, 1, -1, -1, 1, 1, -1, -1, 1, -1, 1, -1, 1, 1, -1, -1, -1, 1, -1, -1, 1, -1, 1, -1, 1, 1, -1, -1, -1, 1, -1, -1, 1, -1, 1, -1, -1, 1, -1, -1, -1, 1, -1, -1, -1, 1, 1, -1, 1, 1, -1, -1, -1, -1, -1, -1, 1, -1, 1, 1, 1, -1, 1, -1, 1, 1, -1, -1, -1, -1, 1, 1, -1, 1, -1, -1, -1, 1, 1, -1, -1, -1, -1, 1, -1, 1, -1, -1, 1, -1, -1, -1, -1, 1, 1, 1, 1, -1, -1, -1, 1, 1, -1, -1, 1, -1, 1, -1, 1, 1, -1, -1, 1, 1, -1, 1, 1, -1, 1, 1, -1, 1, -1, -1, 1, -1, -1, -1, 1, 1, 1, 1, -1, -1, 1, -1, 1, 1, 1, -1, 1, -1, 1, 1, -1, -1, 1, -1, -1, 1, -1, -1, -1, 1, 1, 1, -1, 1, 1, -1, 1, -1, 1, -1, -1, 1, -1, 1, -1, 1, 1, -1, 1, -1, 1, -1, 1, 1, -1, 1, 1, -1, 1, -1, 1, -1, 1, 1, -1, -1, 1, 1, 1, -1, 1, -1, 1, 1, 1, -1, -1, 1, 1, 1, 1, -1, 1, -1, 1, 1, 1, -1, 1, -1, 1, 1, -1, -1, 1, -1, -1, 1, 1, -1, -1, -1, -1, 1, -1, 1, 1, -1, 1, -1, 1, -1, -1, 1, 1, 1, -1, 1, 1, -1, 1, 1, -1, -1, -1, 1, 1, 1, -1, 1, 1, 1, 1, -1, 1, -1, 1, 1, 1, 1, -1, 1, 1, -1, 1, -1, 1, -1, -1, 1, 1, 1, 1, 1, 1, -1, 1, -1, 1, 1, -1, 1, -1, 1, -1, -1, 1, -1, 1, -1, 1, 1, 1, -1, 1, 1, 1, -1, 1, -1, 1, -1, 1, -1, 1, -1, 1, 1, 1, -1, 1, -1, 1, -1, 1, 1, 1, -1, 1, 1, -1, 1, 1, 1, 1, 1, -1, 1, -1, 1, 1, 1, 1, -1, -1, 1, -1, -1, -1, 1, -1, 1, 1, 1, 1, -1, -1, -1, -1, 1, -1, 1, 1, 1, 1, 1, 1, -1, 1, -1, -1, 1, -1, 1, 1, -1, 1, 1, 1, -1, -1, -1, 1, -1, 1, 1, 1, 1, 1, 1, 1, -1, -1, -1, 1, -1, 1, 1, -1, 1, -1, 1, 1, -1, -1, -1, 1, 1, 1, -1, 1, 1, 1, 1, -1, -1, -1, -1, 1, 1, 1, -1, 1, -1, 1, -1, 1, -1, 1, -1, 1, 1, 1, -1, 1, -1, 1, 1, 1, -1, -1, -1, 1, -1, 1, 1, 1, 1, 1, -1, 1, -1, -1, -1, 1, 1, 1, -1, 1, 1, 1, -1, 1, -1, -1, -1, -1, 1, -1, -1, 1, 1, 1, 1, 1, -1, -1, -1, -1, 1, 1, -1, 1, 1, -1, 1, 1, -1, -1, -1, -1, 1, 1, -1, -1, 1, -1, 1, -1, -1, 1, -1, -1, 1, -1, -1, 1, 1, -1, -1, 1, -1, 1, 1, -1, 1, -1, 1, 1, 1, -1, 1, -1, 1, -1, -1, 1, 1, -1, -1, 1, 1, -1, -1, 1, 1, -1, -1, 1, 1, -1, -1, 1, 1, -1, 1, 1, -1, 1, -1, 1, 1, -1, 1, 1, 1, 1, -1, 1, 1, 1, 1, 1, 1, -1, 1, 1, 1, -1, -1, -1, 1, 1, 1, -1, 1, -1, -1, 1, 1, -1, 1, 1, 1, 1, 1, -1, 1, -1, -1, 1, 1, -1, 1, 1, 1, 1, 1, -1, 1, -1, -1, 1, -1, -1, 1, 1, 1, 1, 1, 1, -1, -1, -1, 1, -1, -1, 1, -1, 1, 1, 1, 1, 1, -1, -1, 1, 1, -1, -1, 1, 1, 1, 1, -1, 1, -1, 1, 1, 1, -1, -1, 1, 1, 1, 1, -1, 1, -1, -1, 1, 1, -1, -1, 1, -1, -1, 1, 1, 1, 1, -1, 1, -1, -1, 1, -1, -1, 1, 1, 1, -1, -1, 1, -1, -1, -1, 1, -1, 1, 1, -1, 1, -1, -1, 1, 1, -1, -1, 1, 1, -1, -1, 1, 1, 1, -1, 1, -1, 1, -1, 1, 1, -1, -1, 1, 1, -1, 1, -1, -1, -1, -1, 1, 1, -1, -1, 1, 1, 1, 1, -1, -1, 1, -1, 1, 1, -1, -1, 1, 1, 1, -1, -1, -1, -1, -1, -1, 1, -1, 1, 1, 1, 1, -1, 1, -1, -1, 1, 1, 1, -1, -1, -1, 1, -1, 1, -1, 1, -1, -1, 1, 1, -1, -1, -1, 1, -1, 1, -1, -1, 1, -1, 1, -1, -1, -1, 1, 1, -1, 1, -1, -1, 1, -1, 1, 1, 1, -1, 1, 1, -1, 1, 1, -1, 1, -1, 1, 1, -1, 1, -1, 1, -1, 1, -1, 1
BQP_DATA, 3447, 15846, -7559.000000, -11509.000000, -21400.000000, -25350.000000, 1024.025301, 4546, 1808
